30
[[-1, 0, 0, 0, 0, 24615, 0, 0, 0, 0, 16965, 32598, 28199, 0, 34379, 0, 0, 31320, 0, 0, 0, 0, 0, 0, 0, 0, 37747, 0, 0, 3386],[0, -1, 0, 43044, 0, 26359, 0, 0, 0, 0, 0, 0, 0, 12995, 0, 33752, 0, 0, 0, 0, 0, 0, 0, 0, 0, 13499, 0, 0, 0, 20462],[0, 0, -1, 0, 24239, 29937, 0, 0, 0, 36885, 0, 0, 0, 0, 0, 25607, 0, 0, 0, 14951, 22040, 0, 0, 0, 0, 0, 12865, 0, 0, 44401],[0, 43044, 0, -1, 0, 0, 17386, 0, 0, 0, 0, 0, 0, 0, 0, 0, 0, 0, 0, 0, 25665, 25278, 0, 0, 0, 0, 0, 0, 0, 22747],[0, 0, 24239, 0, -1, 0, 0, 0, 0, 32155, 0, 43711, 0, 0, 0, 0, 0, 0, 0, 29000, 0, 0, 0, 0, 0, 0, 0, 39071, 0, 32919],[24615, 26359, 29937, 0, 0, -1, 0, 0, 0, 0, 24951, 0, 34543, 0, 0, 0, 0, 0, 0, 43649, 5472, 0, 0, 32038, 0, 0, 0, 0, 37378, 0],[0, 0, 0, 17386, 0, 0, -1, 0, 0, 0, 0, 0, 0, 0, 0, 0, 0, 0, 0, 0, 0, 43852, 29454, 0, 21545, 0, 0, 43629, 37727, 0],[0, 0, 0, 0, 0, 0, 0, -1, 0, 0, 0, 0, 0, 0, 0, 41569, 24644, 45358, 0, 0, 0, 45222, 0, 0, 0, 0, 0, 0, 0, 0],[0, 0, 0, 0, 0, 0, 0, 0, -1, 0, 0, 0, 39443, 0, 0, 25088, 14316, 0, 0, 24290, 0, 44569, 26837, 0, 0, 0, 0, 0, 0, 0],[0, 0, 36885, 0, 32155, 0, 0, 0, 0, -1, 6381, 41353, 33661, 31765, 0, 0, 32564, 41775, 40567, 27905, 0, 0, 0, 0, 0, 0, 0, 0, 0, 0],[16965, 0, 0, 0, 0, 24951, 0, 0, 0, 6381, -1, 0, 0, 0, 0, 0, 0, 22904, 0, 0, 0, 0, 0, 0, 0, 0, 0, 42984, 0, 0],[32598, 0, 0, 0, 43711, 0, 0, 0, 0, 41353, 0, -1, 0, 36001, 45459, 38153, 0, 0, 41464, 22227, 0, 0, 0, 0, 0, 0, 34265, 0, 0, 0],[28199, 0, 0, 0, 0, 34543, 0, 0, 39443, 33661, 0, 0, -1, 0, 0, 0, 4747, 0, 0, 0, 0, 30284, 0, 0, 0, 0, 0, 0, 0, 0],[0, 12995, 0, 0, 0, 0, 0, 0, 0, 31765, 0, 36001, 0, -1, 0, 0, 0, 0, 41569, 40344, 0, 34792, 0, 0, 40450, 0, 0, 0, 0, 0],[34379, 0, 0, 0, 0, 0, 0, 0, 0, 0, 0, 45459, 0, 0, -1, 28040, 0, 17897, 0, 0, 0, 0, 0, 0, 0, 0, 39742, 0, 0, 43321],[0, 33752, 25607, 0, 0, 0, 0, 41569, 25088, 0, 0, 38153, 0, 0, 28040, -1, 0, 0, 0, 0, 0, 0, 24942, 0, 0, 45566, 0, 0, 0, 0],[0, 0, 0, 0, 0, 0, 0, 24644, 14316, 32564, 0, 0, 4747, 0, 0, 0, -1, 0, 0, 31834, 30790, 25662, 0, 0, 0, 36443, 0, 0, 0, 0],[31320, 0, 0, 0, 0, 0, 0, 45358, 0, 41775, 22904, 0, 0, 0, 17897, 0, 0, -1, 36319, 0, 0, 0, 32742, 0, 43702, 0, 25112, 29960, 41419, 37900],[0, 0, 0, 0, 0, 0, 0, 0, 0, 40567, 0, 41464, 0, 41569, 0, 0, 0, 36319, -1, 0, 0, 0, 0, 0, 0, 41415, 0, 0, 0, 0],[0, 0, 14951, 0, 29000, 43649, 0, 0, 24290, 27905, 0, 22227, 0, 40344, 0, 0, 31834, 0, 0, -1, 0, 0, 28209, 0, 0, 0, 0, 0, 0, 6471],[0, 0, 22040, 25665, 0, 5472, 0, 0, 0, 0, 0, 0, 0, 0, 0, 0, 30790, 0, 0, 0, -1, 0, 0, 0, 0, 0, 7012, 0, 10362, 0],[0, 0, 0, 25278, 0, 0, 43852, 45222, 44569, 0, 0, 0, 30284, 34792, 0, 0, 25662, 0, 0, 0, 0, -1, 0, 0, 30097, 0, 0, 0, 0, 0],[0, 0, 0, 0, 0, 0, 29454, 0, 26837, 0, 0, 0, 0, 0, 0, 24942, 0, 32742, 0, 28209, 0, 0, -1, 6037, 0, 0, 23505, 42087, 0, 0],[0, 0, 0, 0, 0, 32038, 0, 0, 0, 0, 0, 0, 0, 0, 0, 0, 0, 0, 0, 0, 0, 0, 6037, -1, 7349, 0, 0, 38956, 43900, 37497],[0, 0, 0, 0, 0, 0, 21545, 0, 0, 0, 0, 0, 0, 40450, 0, 0, 0, 43702, 0, 0, 0, 30097, 0, 7349, -1, 0, 0, 0, 7604, 0],[0, 13499, 0, 0, 0, 0, 0, 0, 0, 0, 0, 0, 0, 0, 0, 45566, 36443, 0, 41415, 0, 0, 0, 0, 0, 0, -1, 0, 0, 0, 0],[37747, 0, 12865, 0, 0, 0, 0, 0, 0, 0, 0, 34265, 0, 0, 39742, 0, 0, 25112, 0, 0, 7012, 0, 23505, 0, 0, 0, -1, 23495, 0, 16300],[0, 0, 0, 0, 39071, 0, 43629, 0, 0, 0, 42984, 0, 0, 0, 0, 0, 0, 29960, 0, 0, 0, 0, 42087, 38956, 0, 0, 23495, -1, 0, 0],[0, 0, 0, 0, 0, 37378, 37727, 0, 0, 0, 0, 0, 0, 0, 0, 0, 0, 41419, 0, 0, 10362, 0, 0, 43900, 7604, 0, 0, 0, -1, 0],[3386, 20462, 44401, 22747, 32919, 0, 0, 0, 0, 0, 0, 0, 0, 0, 43321, 0, 0, 37900, 0, 6471, 0, 0, 0, 37497, 0, 0, 16300, 0, 0, -1]]